block_table_value:
[[1 1 1 1 1 1 1 1]
 [1 1 1 1 1 1 1 1]
 [1 1 1 1 0 0 0 0]
 [1 1 1 1 0 0 0 0]
 [1 1 0 0 1 1 0 0]
 [1 1 0 0 1 1 0 0]
 [1 1 0 0 0 0 1 1]
 [1 1 0 0 0 0 1 1]]
Set parameter Username
Set parameter LicenseID to value 2603695
Academic license - for non-commercial use only - expires 2025-12-26
Gurobi Optimizer version 11.0.3 build v11.0.3rc0 (linux64 - "Debian GNU/Linux 12 (bookworm)")

CPU model: Intel(R) Xeon(R) Gold 6252 CPU @ 2.10GHz, instruction set [SSE2|AVX|AVX2|AVX512]
Thread count: 48 physical cores, 96 logical processors, using up to 32 threads

Optimize a model with 616 rows, 433 columns and 1888 nonzeros
Model fingerprint: 0xa8db05e8
Variable types: 0 continuous, 433 integer (256 binary)
Coefficient statistics:
  Matrix range     [1e+00, 2e+00]
  Objective range  [1e+00, 1e+00]
  Bounds range     [1e+00, 1e+00]
  RHS range        [1e+00, 4e+00]
Presolve removed 96 rows and 48 columns
Presolve time: 0.00s
Presolved: 520 rows, 385 columns, 1696 nonzeros
Variable types: 0 continuous, 385 integer (368 binary)
Found heuristic solution: objective 15.0000000
Found heuristic solution: objective 14.0000000

Root relaxation: objective 3.500000e+00, 707 iterations, 0.02 seconds (0.02 work units)

    Nodes    |    Current Node    |     Objective Bounds      |     Work
 Expl Unexpl |  Obj  Depth IntInf | Incumbent    BestBd   Gap | It/Node Time

     0     0    3.50000    0  385   14.00000    3.50000  75.0%     -    0s
H    0     0                      12.0000000    3.50000  70.8%     -    0s
H    0     0                      11.0000000    3.50000  68.2%     -    0s
     0     0    5.00000    0  300   11.00000    5.00000  54.5%     -    0s
     0     0    5.00000    0  302   11.00000    5.00000  54.5%     -    0s
H    0     0                      10.0000000    5.00000  50.0%     -    0s
     0     0    5.00000    0  293   10.00000    5.00000  50.0%     -    0s
     0     0    5.10013    0  315   10.00000    5.10013  49.0%     -    0s
     0     0    5.22392    0  315   10.00000    5.22392  47.8%     -    0s
     0     0    5.32327    0  297   10.00000    5.32327  46.8%     -    0s
     0     0    6.00000    0  154   10.00000    6.00000  40.0%     -    0s
H    0     0                       9.0000000    6.00000  33.3%     -    0s
     0     0    6.00000    0  144    9.00000    6.00000  33.3%     -    0s
     0     0    6.00000    0  157    9.00000    6.00000  33.3%     -    0s
     0     0    6.00000    0  169    9.00000    6.00000  33.3%     -    0s
     0     0    6.00000    0  163    9.00000    6.00000  33.3%     -    0s
H    0     0                       8.0000000    6.00000  25.0%     -    0s
     0     0    6.00000    0  173    8.00000    6.00000  25.0%     -    0s
     0     0    6.00000    0  180    8.00000    6.00000  25.0%     -    0s
     0     0    6.00000    0  180    8.00000    6.00000  25.0%     -    0s
     0     0    6.00000    0  182    8.00000    6.00000  25.0%     -    0s
     0     0    6.00000    0  161    8.00000    6.00000  25.0%     -    0s
     0     2    6.00000    0  161    8.00000    6.00000  25.0%     -    0s
H  264   129                       7.0000000    7.00000  0.00%   134    2s

Cutting planes:
  MIR: 26
  Mod-K: 6
  RLT: 8

Explored 280 nodes (45499 simplex iterations) in 2.25 seconds (2.37 work units)
Thread count was 32 (of 96 available processors)

Solution count 8: 7 8 9 ... 15

Optimal solution found (tolerance 1.00e-04)
Best objective 7.000000000000e+00, best bound 7.000000000000e+00, gap 0.0000%
LP solve time: 2.255920171737671 s
Optimal value: 7.0
LP result:
x_0_1_0: 0.0
x_0_1_1: 1.0
x_0_1_2: 0.0
x_0_1_3: -0.0
x_0_1_4: 0.0
x_0_1_5: 0.0
x_0_1_6: -0.0
x_0_1_7: 0.0
x_0_2_0: 0.0
x_0_2_1: 0.0
x_0_2_2: 0.0
x_0_2_3: -0.0
x_0_2_4: 1.0
x_0_2_5: 0.0
x_0_2_6: 0.0
x_0_2_7: 0.0
x_0_3_0: 1.0
x_0_3_1: 0.0
x_0_3_2: 0.0
x_0_3_3: -0.0
x_0_3_4: 0.0
x_0_3_5: 0.0
x_0_3_6: 0.0
x_0_3_7: -0.0
x_0_4_0: 0.0
x_0_4_1: 0.0
x_0_4_2: 0.0
x_0_4_3: -0.0
x_0_4_4: 1.0
x_0_4_5: 0.0
x_0_4_6: 0.0
x_0_4_7: 0.0
x_0_5_0: 0.0
x_0_5_1: 0.0
x_0_5_2: 0.0
x_0_5_3: -0.0
x_0_5_4: 1.0
x_0_5_5: 0.0
x_0_5_6: 0.0
x_0_5_7: 0.0
x_0_6_0: 0.0
x_0_6_1: 1.0
x_0_6_2: 0.0
x_0_6_3: -0.0
x_0_6_4: -0.0
x_0_6_5: 0.0
x_0_6_6: 0.0
x_0_6_7: 0.0
x_0_7_0: 1.0
x_0_7_1: 0.0
x_0_7_2: 0.0
x_0_7_3: -0.0
x_0_7_4: 0.0
x_0_7_5: 0.0
x_0_7_6: 0.0
x_0_7_7: 0.0
x_1_0_0: 1.0
x_1_0_1: 0.0
x_1_0_2: 0.0
x_1_0_3: -0.0
x_1_0_4: -0.0
x_1_0_5: 0.0
x_1_0_6: 0.0
x_1_0_7: -0.0
x_1_2_0: -0.0
x_1_2_1: -0.0
x_1_2_2: -0.0
x_1_2_3: 1.0
x_1_2_4: -0.0
x_1_2_5: -0.0
x_1_2_6: -0.0
x_1_2_7: -0.0
x_1_3_0: 0.0
x_1_3_1: 0.0
x_1_3_2: 0.0
x_1_3_3: 1.0
x_1_3_4: -0.0
x_1_3_5: 0.0
x_1_3_6: 0.0
x_1_3_7: -0.0
x_1_4_0: 0.0
x_1_4_1: 0.0
x_1_4_2: 0.0
x_1_4_3: 1.0
x_1_4_4: -0.0
x_1_4_5: 0.0
x_1_4_6: 0.0
x_1_4_7: -0.0
x_1_5_0: 0.0
x_1_5_1: 1.0
x_1_5_2: 0.0
x_1_5_3: -0.0
x_1_5_4: -0.0
x_1_5_5: 0.0
x_1_5_6: 0.0
x_1_5_7: -0.0
x_1_6_0: 0.0
x_1_6_1: 1.0
x_1_6_2: 0.0
x_1_6_3: -0.0
x_1_6_4: -0.0
x_1_6_5: 0.0
x_1_6_6: 0.0
x_1_6_7: -0.0
x_1_7_0: 1.0
x_1_7_1: 0.0
x_1_7_2: 0.0
x_1_7_3: -0.0
x_1_7_4: -0.0
x_1_7_5: 0.0
x_1_7_6: 0.0
x_1_7_7: -0.0
x_2_0_0: 0.0
x_2_0_1: 0.0
x_2_0_2: 1.0
x_2_0_3: -0.0
x_2_0_4: 0.0
x_2_0_5: 0.0
x_2_0_6: 0.0
x_2_0_7: -0.0
x_2_1_0: 0.0
x_2_1_1: 0.0
x_2_1_2: 0.0
x_2_1_3: -0.0
x_2_1_4: 0.0
x_2_1_5: 1.0
x_2_1_6: -0.0
x_2_1_7: 0.0
x_2_3_0: -0.0
x_2_3_1: -0.0
x_2_3_2: -0.0
x_2_3_3: -0.0
x_2_3_4: -0.0
x_2_3_5: 1.0
x_2_3_6: -0.0
x_2_3_7: -0.0
x_3_0_0: 0.0
x_3_0_1: 0.0
x_3_0_2: 1.0
x_3_0_3: -0.0
x_3_0_4: 0.0
x_3_0_5: 0.0
x_3_0_6: 0.0
x_3_0_7: -0.0
x_3_1_0: 0.0
x_3_1_1: 0.0
x_3_1_2: 0.0
x_3_1_3: -0.0
x_3_1_4: 0.0
x_3_1_5: 0.0
x_3_1_6: -0.0
x_3_1_7: 1.0
x_3_2_0: 0.0
x_3_2_1: 0.0
x_3_2_2: -0.0
x_3_2_3: 1.0
x_3_2_4: 0.0
x_3_2_5: 0.0
x_3_2_6: 0.0
x_3_2_7: 0.0
x_4_0_0: 0.0
x_4_0_1: 0.0
x_4_0_2: 0.0
x_4_0_3: -0.0
x_4_0_4: 0.0
x_4_0_5: 0.0
x_4_0_6: 1.0
x_4_0_7: -0.0
x_4_1_0: 0.0
x_4_1_1: 0.0
x_4_1_2: 0.0
x_4_1_3: -0.0
x_4_1_4: 0.0
x_4_1_5: 1.0
x_4_1_6: -0.0
x_4_1_7: 0.0
x_4_5_0: 0.0
x_4_5_1: 0.0
x_4_5_2: 0.0
x_4_5_3: -0.0
x_4_5_4: 1.0
x_4_5_5: 0.0
x_4_5_6: 0.0
x_4_5_7: 0.0
x_5_0_0: 0.0
x_5_0_1: 0.0
x_5_0_2: 1.0
x_5_0_3: -0.0
x_5_0_4: 0.0
x_5_0_5: 0.0
x_5_0_6: 0.0
x_5_0_7: -0.0
x_5_1_0: 0.0
x_5_1_1: 0.0
x_5_1_2: 0.0
x_5_1_3: -0.0
x_5_1_4: 0.0
x_5_1_5: 1.0
x_5_1_6: -0.0
x_5_1_7: 0.0
x_5_4_0: 0.0
x_5_4_1: 0.0
x_5_4_2: 1.0
x_5_4_3: 0.0
x_5_4_4: 0.0
x_5_4_5: 0.0
x_5_4_6: 0.0
x_5_4_7: 0.0
x_6_0_0: 0.0
x_6_0_1: 0.0
x_6_0_2: 0.0
x_6_0_3: -0.0
x_6_0_4: 0.0
x_6_0_5: 0.0
x_6_0_6: 1.0
x_6_0_7: -0.0
x_6_1_0: 0.0
x_6_1_1: 0.0
x_6_1_2: 0.0
x_6_1_3: -0.0
x_6_1_4: 0.0
x_6_1_5: 0.0
x_6_1_6: -0.0
x_6_1_7: 1.0
x_6_7_0: -0.0
x_6_7_1: -0.0
x_6_7_2: -0.0
x_6_7_3: -0.0
x_6_7_4: -0.0
x_6_7_5: -0.0
x_6_7_6: 1.0
x_6_7_7: -0.0
x_7_0_0: 0.0
x_7_0_1: 0.0
x_7_0_2: -0.0
x_7_0_3: -0.0
x_7_0_4: -0.0
x_7_0_5: 0.0
x_7_0_6: 1.0
x_7_0_7: -0.0
x_7_1_0: 0.0
x_7_1_1: 0.0
x_7_1_2: -0.0
x_7_1_3: -0.0
x_7_1_4: -0.0
x_7_1_5: 0.0
x_7_1_6: -0.0
x_7_1_7: 1.0
x_7_6_0: 0.0
x_7_6_1: 0.0
x_7_6_2: -0.0
x_7_6_3: -0.0
x_7_6_4: -0.0
x_7_6_5: 0.0
x_7_6_6: 0.0
x_7_6_7: 1.0
a_0_0: 1.0
a_0_1: 1.0
a_0_2: 0.0
a_0_3: 0.0
a_0_4: 0.0
a_0_5: 0.0
a_0_6: 0.0
a_0_7: 0.0
a_1_0: 1.0
a_1_1: 1.0
a_1_2: 0.0
a_1_3: 0.0
a_1_4: 0.0
a_1_5: 0.0
a_1_6: 0.0
a_1_7: 0.0
a_2_0: 0.0
a_2_1: 0.0
a_2_2: 1.0
a_2_3: 1.0
a_2_4: 0.0
a_2_5: 1.0
a_2_6: 0.0
a_2_7: -0.0
a_3_0: -0.0
a_3_1: 1.0
a_3_2: 0.0
a_3_3: 1.0
a_3_4: 0.0
a_3_5: 0.0
a_3_6: 0.0
a_3_7: 0.0
a_4_0: 1.0
a_4_1: -0.0
a_4_2: 0.0
a_4_3: 0.0
a_4_4: 1.0
a_4_5: 0.0
a_4_6: 0.0
a_4_7: -0.0
a_5_0: 0.0
a_5_1: 0.0
a_5_2: 1.0
a_5_3: 0.0
a_5_4: 1.0
a_5_5: 1.0
a_5_6: 0.0
a_5_7: 0.0
a_6_0: 0.0
a_6_1: 0.0
a_6_2: 0.0
a_6_3: 0.0
a_6_4: 1.0
a_6_5: 0.0
a_6_6: 1.0
a_6_7: 1.0
a_7_0: 0.0
a_7_1: -0.0
a_7_2: 0.0
a_7_3: 1.0
a_7_4: 0.0
a_7_5: 0.0
a_7_6: 1.0
a_7_7: 1.0
b_0_0: 1.0
b_0_1: 0.0
b_0_2: 0.0
b_0_3: 1.0
b_0_4: 0.0
b_0_5: 0.0
b_0_6: 0.0
b_0_7: 1.0
b_1_0: 0.0
b_1_1: 1.0
b_1_2: 0.0
b_1_3: 0.0
b_1_4: 0.0
b_1_5: 1.0
b_1_6: 1.0
b_1_7: 0.0
b_2_0: 1.0
b_2_1: 0.0
b_2_2: 1.0
b_2_3: 0.0
b_2_4: 1.0
b_2_5: 0.0
b_2_6: 0.0
b_2_7: 0.0
b_3_0: -0.0
b_3_1: -0.0
b_3_2: 1.0
b_3_3: 1.0
b_3_4: 1.0
b_3_5: -0.0
b_3_6: -0.0
b_3_7: -0.0
b_4_0: 0.0
b_4_1: 0.0
b_4_2: 1.0
b_4_3: 0.0
b_4_4: 1.0
b_4_5: 1.0
b_4_6: 0.0
b_4_7: 0.0
b_5_0: 0.0
b_5_1: 1.0
b_5_2: 0.0
b_5_3: 1.0
b_5_4: 0.0
b_5_5: 1.0
b_5_6: 0.0
b_5_7: 0.0
b_6_0: 1.0
b_6_1: -0.0
b_6_2: 0.0
b_6_3: 0.0
b_6_4: 0.0
b_6_5: 0.0
b_6_6: 1.0
b_6_7: 1.0
b_7_0: -0.0
b_7_1: 1.0
b_7_2: 0.0
b_7_3: -0.0
b_7_4: 0.0
b_7_5: 0.0
b_7_6: 1.0
b_7_7: 1.0
A_0: 1.0
B_0: 2.0
C_0: 2.0
D_0: 2.0
Cin_0: 7.0
Cout_0: 7.0
A_1: 1.0
B_1: 2.0
C_1: 2.0
D_1: 2.0
Cin_1: 7.0
Cout_1: 7.0
A_2: 2.0
B_2: 2.0
C_2: 1.0
D_2: 2.0
Cin_2: 7.0
Cout_2: 7.0
A_3: 1.0
B_3: 2.0
C_3: 2.0
D_3: 2.0
Cin_3: 7.0
Cout_3: 7.0
A_4: 1.0
B_4: 2.0
C_4: 2.0
D_4: 2.0
Cin_4: 7.0
Cout_4: 7.0
A_5: 2.0
B_5: 2.0
C_5: 1.0
D_5: 2.0
Cin_5: 7.0
Cout_5: 7.0
A_6: 2.0
B_6: 2.0
C_6: 1.0
D_6: 2.0
Cin_6: 7.0
Cout_6: 7.0
A_7: 2.0
B_7: 2.0
C_7: 1.0
D_7: 2.0
Cin_7: 7.0
Cout_7: 7.0
Comm_Volume: 7.0
Allocation Matrix:
0  1  4  0  4  4  1  0  
0  1  3  3  3  1  1  0  
2  5  2  5  /  /  /  /  
2  7  3  3  /  /  /  /  
6  5  /  /  4  4  /  /  
2  5  /  /  2  5  /  /  
6  7  /  /  /  /  6  6  
6  7  /  /  /  /  7  7  
